c uprop, v00.0, 
c reading from data/prog666.c.cnf
c done reading: 0.002489
p cnf 164 773
-76 -90 0
76 90 0
-66 -84 0
66 84 0
-78 -80 0
78 80 0
-71 -74 0
71 74 0
-69 -82 0
69 82 0
-64 -72 0
64 72 0
-87 -93 0
87 93 0
84 -94 0
-84 94 0
-84 -95 0
84 95 0
-80 -90 96 0
-80 -94 96 0
-90 -94 96 0
80 90 -96 0
80 94 -96 0
90 94 -96 0
80 -96 -97 0
90 -96 -97 0
94 -96 -97 0
-80 96 97 0
-90 96 97 0
-94 96 97 0
-80 -90 -94 97 0
80 90 94 -97 0
-74 -84 98 0
-74 -96 98 0
-84 -96 98 0
74 84 -98 0
74 96 -98 0
84 96 -98 0
74 -98 -99 0
84 -98 -99 0
96 -98 -99 0
-74 98 99 0
-84 98 99 0
-96 98 99 0
-74 -84 -96 99 0
74 84 96 -99 0
-69 -80 100 0
-69 -98 100 0
-80 -98 100 0
69 80 -100 0
69 98 -100 0
80 98 -100 0
69 -100 -101 0
80 -100 -101 0
98 -100 -101 0
-69 100 101 0
-80 100 101 0
-98 100 101 0
-69 -80 -98 101 0
69 80 98 -101 0
-64 -74 102 0
-64 -100 102 0
-74 -100 102 0
64 74 -102 0
64 100 -102 0
74 100 -102 0
64 -102 -103 0
74 -102 -103 0
100 -102 -103 0
-64 102 103 0
-74 102 103 0
-100 102 103 0
-64 -74 -100 103 0
64 74 100 -103 0
-69 -87 104 0
-87 -102 104 0
-69 -102 104 0
69 87 -104 0
87 102 -104 0
69 102 -104 0
87 -104 -105 0
69 -104 -105 0
102 -104 -105 0
-87 104 105 0
-69 104 105 0
-102 104 105 0
-69 -87 -102 105 0
69 87 102 -105 0
64 -106 0
104 -106 0
-64 -104 106 0
-64 -92 -104 0
64 -92 104 0
-64 92 104 0
64 92 -104 0
87 -89 0
-89 106 0
-87 89 -106 0
-83 -87 -106 0
-83 87 106 0
83 -87 106 0
83 87 -106 0
-79 99 0
79 -99 0
-73 -99 0
73 99 0
68 -90 -101 0
68 -79 -101 0
68 -79 -90 0
-68 90 101 0
-68 79 101 0
-68 79 90 0
-63 -68 101 0
-63 -68 90 0
-63 -68 79 0
63 68 -101 0
63 68 -90 0
63 68 -79 0
63 -79 -90 -101 0
-63 79 90 101 0
-84 86 -103 0
-68 86 -103 0
-68 -84 86 0
84 -86 103 0
68 -86 103 0
68 84 -86 0
-62 -86 103 0
-62 84 -86 0
-62 68 -86 0
62 86 -103 0
62 -84 86 0
62 -68 86 0
62 -68 -84 -103 0
-62 68 84 103 0
59 -80 -105 0
59 -86 -105 0
59 -80 -86 0
-59 80 105 0
-59 86 105 0
-59 80 86 0
-58 -59 105 0
-58 -59 80 0
-58 -59 86 0
58 59 -105 0
58 59 -80 0
58 59 -86 0
58 -80 -86 -105 0
-58 80 86 105 0
57 -74 -92 0
57 -59 -92 0
57 -59 -74 0
-57 74 92 0
-57 59 92 0
-57 59 74 0
-56 -57 92 0
-56 -57 74 0
-56 -57 59 0
56 57 -92 0
56 57 -74 0
56 57 -59 0
56 -59 -74 -92 0
-56 59 74 92 0
55 -69 -83 0
55 -57 -83 0
55 -57 -69 0
-55 69 83 0
-55 57 83 0
-55 57 69 0
-54 -55 83 0
-54 -55 69 0
-54 -55 57 0
54 55 -83 0
54 55 -69 0
54 55 -57 0
54 -57 -69 -83 0
-54 57 69 83 0
53 -64 -89 0
53 -55 -89 0
53 -55 -64 0
-53 64 89 0
-53 55 89 0
-53 55 64 0
-52 -53 89 0
-52 -53 64 0
-52 -53 55 0
52 53 -89 0
52 53 -64 0
52 53 -55 0
52 -55 -64 -89 0
-52 55 64 89 0
-51 87 0
-51 53 0
51 -53 -87 0
-50 -53 -87 0
-50 53 87 0
50 53 -87 0
50 -53 87 0
-49 -90 0
49 90 0
-48 -95 0
48 95 0
-47 -97 0
47 97 0
-46 -73 0
46 73 0
-45 -63 0
45 63 0
-44 -62 0
44 62 0
-43 -58 0
43 58 0
-42 -56 0
42 56 0
-41 -54 0
41 54 0
-40 -52 0
40 52 0
-39 -50 0
39 50 0
-38 -51 0
38 51 0
-60 -107 0
-107 -108 0
60 107 108 0
60 108 -110 0
-60 -108 -110 0
-60 108 110 0
60 -108 110 0
107 -111 0
-111 -112 0
-107 111 112 0
-107 112 -114 0
107 -112 -114 0
107 112 114 0
-107 -112 114 0
111 -115 0
-115 -116 0
-111 115 116 0
-111 116 -118 0
111 -116 -118 0
111 116 118 0
-111 -116 118 0
115 -119 0
-119 -120 0
-115 119 120 0
-115 120 -122 0
115 -120 -122 0
115 120 122 0
-115 -120 122 0
119 -123 0
-123 -124 0
-119 123 124 0
-119 124 -126 0
119 -124 -126 0
119 124 126 0
-119 -124 126 0
123 -127 0
-127 -128 0
-123 127 128 0
-123 128 -130 0
123 -128 -130 0
123 128 130 0
-123 -128 130 0
127 -131 0
-131 -132 0
-127 131 132 0
-127 132 -134 0
127 -132 -134 0
127 132 134 0
-127 -132 134 0
108 -135 0
60 -135 0
-60 -108 135 0
-60 -108 -136 0
60 108 -136 0
60 -108 136 0
-60 108 136 0
-108 -112 137 0
-112 -135 137 0
-108 -135 137 0
108 112 -137 0
112 135 -137 0
108 135 -137 0
112 -137 -138 0
108 -137 -138 0
135 -137 -138 0
-112 137 138 0
-108 137 138 0
-135 137 138 0
-108 -112 -135 138 0
108 112 135 -138 0
-112 -116 139 0
-116 -137 139 0
-112 -137 139 0
112 116 -139 0
116 137 -139 0
112 137 -139 0
116 -139 -140 0
112 -139 -140 0
137 -139 -140 0
-116 139 140 0
-112 139 140 0
-137 139 140 0
-112 -116 -137 140 0
112 116 137 -140 0
-116 -120 141 0
-120 -139 141 0
-116 -139 141 0
116 120 -141 0
120 139 -141 0
116 139 -141 0
120 -141 -142 0
116 -141 -142 0
139 -141 -142 0
-120 141 142 0
-116 141 142 0
-139 141 142 0
-116 -120 -139 142 0
116 120 139 -142 0
-120 -124 143 0
-124 -141 143 0
-120 -141 143 0
120 124 -143 0
124 141 -143 0
120 141 -143 0
124 -143 -144 0
120 -143 -144 0
141 -143 -144 0
-124 143 144 0
-120 143 144 0
-141 143 144 0
-120 -124 -141 144 0
120 124 141 -144 0
-124 -128 145 0
-128 -143 145 0
-124 -143 145 0
124 128 -145 0
128 143 -145 0
124 143 -145 0
128 -145 -146 0
124 -145 -146 0
143 -145 -146 0
-128 145 146 0
-124 145 146 0
-143 145 146 0
-124 -128 -143 146 0
124 128 143 -146 0
91 -128 -132 0
91 -132 -145 0
91 -128 -145 0
-91 128 132 0
-91 132 145 0
-91 128 145 0
-85 -91 132 0
-85 -91 128 0
-85 -91 145 0
85 91 -132 0
85 91 -128 0
85 91 -145 0
85 -128 -132 -145 0
-85 128 132 145 0
-81 132 0
-81 91 0
81 -91 -132 0
-75 -91 -132 0
-75 91 132 0
75 91 -132 0
75 -91 132 0
-70 138 0
60 -70 0
-60 70 -138 0
-60 -65 -138 0
60 -65 138 0
60 65 -138 0
-60 65 138 0
88 -108 -140 0
-70 88 -140 0
-70 88 -108 0
-88 108 140 0
70 -88 140 0
70 -88 108 0
-61 -88 140 0
-61 -88 108 0
-61 70 -88 0
61 88 -140 0
61 88 -108 0
61 -70 88 0
61 -70 -108 -140 0
-61 70 108 140 0
109 -112 -142 0
-88 109 -142 0
-88 109 -112 0
-109 112 142 0
88 -109 142 0
88 -109 112 0
-109 -113 142 0
-109 112 -113 0
88 -109 -113 0
109 113 -142 0
109 -112 113 0
-88 109 113 0
-88 -112 113 -142 0
88 112 -113 142 0
-116 117 -144 0
-109 117 -144 0
-109 -116 117 0
116 -117 144 0
109 -117 144 0
109 116 -117 0
-117 -121 144 0
116 -117 -121 0
109 -117 -121 0
117 121 -144 0
-116 117 121 0
-109 117 121 0
-109 -116 121 -144 0
109 116 -121 144 0
-120 125 -146 0
-117 125 -146 0
-117 -120 125 0
120 -125 146 0
117 -125 146 0
117 120 -125 0
-125 -129 146 0
120 -125 -129 0
117 -125 -129 0
125 129 -146 0
-120 125 129 0
-117 125 129 0
-117 -120 129 -146 0
117 120 -129 146 0
-85 -124 133 0
-85 -125 133 0
-124 -125 133 0
85 124 -133 0
85 125 -133 0
124 125 -133 0
85 -133 -147 0
124 -133 -147 0
125 -133 -147 0
-85 133 147 0
-124 133 147 0
-125 133 147 0
-85 -124 -125 147 0
85 124 125 -147 0
-75 -128 148 0
-75 -133 148 0
-128 -133 148 0
75 128 -148 0
75 133 -148 0
128 133 -148 0
75 -148 -149 0
128 -148 -149 0
133 -148 -149 0
-75 148 149 0
-128 148 149 0
-133 148 149 0
-75 -128 -133 149 0
75 128 133 -149 0
-81 -132 150 0
-81 -148 150 0
-132 -148 150 0
81 132 -150 0
81 148 -150 0
132 148 -150 0
81 -150 -151 0
132 -150 -151 0
148 -150 -151 0
-81 150 151 0
-132 150 151 0
-148 150 151 0
-81 -132 -148 151 0
81 132 148 -151 0
113 -152 0
60 -152 0
-60 -113 152 0
-60 -113 -153 0
60 113 -153 0
60 -113 153 0
-60 113 153 0
-108 -121 154 0
-121 -152 154 0
-108 -152 154 0
108 121 -154 0
121 152 -154 0
108 152 -154 0
121 -154 -155 0
108 -154 -155 0
152 -154 -155 0
-121 154 155 0
-108 154 155 0
-152 154 155 0
-108 -121 -152 155 0
108 121 152 -155 0
-112 -129 156 0
-129 -154 156 0
-112 -154 156 0
112 129 -156 0
129 154 -156 0
112 154 -156 0
129 -156 -157 0
112 -156 -157 0
154 -156 -157 0
-129 156 157 0
-112 156 157 0
-154 156 157 0
-112 -129 -154 157 0
112 129 154 -157 0
-116 -147 158 0
-147 -156 158 0
-116 -156 158 0
116 147 -158 0
147 156 -158 0
116 156 -158 0
147 -158 -159 0
116 -158 -159 0
156 -158 -159 0
-147 158 159 0
-116 158 159 0
-156 158 159 0
-116 -147 -156 159 0
116 147 156 -159 0
-120 -149 160 0
-149 -158 160 0
-120 -158 160 0
120 149 -160 0
149 158 -160 0
120 158 -160 0
149 -160 -161 0
120 -160 -161 0
158 -160 -161 0
-149 160 161 0
-120 160 161 0
-158 160 161 0
-120 -149 -158 161 0
120 149 158 -161 0
-124 -151 162 0
-151 -160 162 0
-124 -160 162 0
124 151 -162 0
151 160 -162 0
124 160 -162 0
151 -162 -163 0
124 -162 -163 0
160 -162 -163 0
-151 162 163 0
-124 162 163 0
-160 162 163 0
-124 -151 -160 163 0
124 151 160 -163 0
77 -128 -150 0
77 -150 -162 0
77 -128 -162 0
-77 128 150 0
-77 150 162 0
-77 128 162 0
-77 150 -164 0
-77 128 -164 0
-77 162 -164 0
77 -150 164 0
77 -128 164 0
77 -162 164 0
-128 -150 -162 164 0
128 150 162 -164 0
-67 132 0
-67 77 0
67 -77 -132 0
-37 -77 -132 0
-37 77 132 0
37 77 -132 0
37 -77 132 0
-36 -60 0
-36 -136 0
36 60 136 0
-35 60 136 0
-35 -60 -136 0
35 -60 136 0
35 60 -136 0
-34 36 0
-34 -65 0
34 -36 65 0
-33 -36 65 0
-33 36 -65 0
33 36 65 0
33 -36 -65 0
-32 34 0
-32 -61 0
32 -34 61 0
-31 -34 61 0
-31 34 -61 0
31 34 61 0
31 -34 -61 0
-30 32 0
-30 -153 0
30 -32 153 0
-29 -32 153 0
-29 32 -153 0
29 32 153 0
29 -32 -153 0
-28 30 0
-28 -155 0
28 -30 155 0
-27 -30 155 0
-27 30 -155 0
27 30 155 0
27 -30 -155 0
-26 28 0
-26 -157 0
26 -28 157 0
-25 -28 157 0
-25 28 -157 0
25 28 157 0
25 -28 -157 0
-24 26 0
-24 -159 0
24 -26 159 0
-23 -26 159 0
-23 26 -159 0
23 26 159 0
23 -26 -159 0
-22 24 0
-22 -161 0
22 -24 161 0
-21 -24 161 0
-21 24 -161 0
21 24 161 0
21 -24 -161 0
-20 22 0
-20 -163 0
20 -22 163 0
-19 -22 163 0
-19 22 -163 0
19 22 163 0
19 -22 -163 0
-18 20 0
-18 -164 0
18 -20 164 0
-17 -20 164 0
-17 20 -164 0
17 20 164 0
17 -20 -164 0
-16 18 0
-16 -37 0
16 -18 37 0
-15 -18 37 0
-15 18 -37 0
15 18 37 0
15 -18 -37 0
-14 16 0
-14 -67 0
14 -16 67 0
-13 -16 67 0
-13 16 -67 0
13 16 67 0
13 -16 -67 0
-12 90 0
-12 60 0
12 -60 -90 0
-60 -90 0
60 90 0
11 -95 -136 0
11 -12 -95 0
11 -12 -136 0
-11 95 136 0
-11 12 95 0
-11 12 136 0
-11 95 0
-11 136 0
-11 12 0
12 95 136 0
10 -65 -97 0
10 -11 -97 0
10 -11 -65 0
-10 65 97 0
-10 11 97 0
-10 11 65 0
-10 97 0
-10 65 0
-10 11 0
11 65 97 0
9 -61 -73 0
9 -10 -73 0
9 -10 -61 0
-9 61 73 0
-9 10 73 0
-9 10 61 0
-9 73 0
-9 61 0
-9 10 0
10 61 73 0
8 -63 -153 0
8 -9 -63 0
8 -9 -153 0
-8 63 153 0
-8 9 63 0
-8 9 153 0
8 -63 0
8 -153 0
8 -9 0
-9 -63 -153 0
7 -62 -155 0
7 -8 -62 0
7 -8 -155 0
-7 62 155 0
-7 8 62 0
-7 8 155 0
-7 62 0
-7 155 0
-7 8 0
8 62 155 0
6 -58 -157 0
6 -7 -58 0
6 -7 -157 0
-6 58 157 0
-6 7 58 0
-6 7 157 0
6 -58 0
6 -157 0
6 -7 0
-7 -58 -157 0
5 -56 -159 0
5 -6 -56 0
5 -6 -159 0
-5 56 159 0
-5 6 56 0
-5 6 159 0
5 -56 0
5 -159 0
5 -6 0
-6 -56 -159 0
4 -54 -161 0
4 -5 -54 0
4 -5 -161 0
-4 54 161 0
-4 5 54 0
-4 5 161 0
4 -54 0
4 -161 0
4 -5 0
-5 -54 -161 0
3 -52 -163 0
3 -4 -52 0
3 -4 -163 0
-3 52 163 0
-3 4 52 0
-3 4 163 0
3 -52 0
3 -163 0
3 -4 0
-4 -52 -163 0
2 -50 -164 0
2 -3 -50 0
2 -3 -164 0
-2 50 164 0
-2 3 50 0
-2 3 164 0
2 -50 0
2 -164 0
2 -3 0
-3 -50 -164 0
1 -37 -51 0
1 -2 -51 0
1 -2 -37 0
-1 37 51 0
-1 2 51 0
-1 2 37 0
1 -51 0
1 -37 0
1 -2 0
-2 -37 -51 0
-1 -67 0
1 -67 0
-1 67 0
